s 1
v -1 -2 -3 -4 5 -6 -7 8 9 10 -11 -12 13 14 -15 16 -17 18 -19 -20 -21 22 23 24 25 26 -27 28 29 -30 31 -32 33 -34 -35 -36 -37 38 -39 -40 -41 42 43 -44 45 46 47 48 49 50
t 163ms
Wed Feb 20 17:11:43 2019
s 1
v -1 -2 -3 -4 +5 -6 -7 +8 +9 +10 -11 -12 +13 +14 -15 +16 -17 +18 -19 -20 -21 +22 +23 +24 +25 +26 -27 +28 +29 -30 +31 -32 +33 -34 -35 -36 -37 +38 -39 -40 -41 +42 +43 -44 +45 +46 +47 +48 +49 +50
t 164ms
Tue Feb 26 11:17:44 2019
s 1
v -1 -2 -3 -4 +5 -6 -7 +8 +9 +10 -11 -12 +13 +14 -15 +16 -17 +18 -19 -20 -21 +22 +23 +24 +25 +26 -27 +28 +29 -30 +31 -32 +33 -34 -35 -36 -37 +38 -39 -40 -41 +42 +43 -44 +45 +46 +47 +48 +49 +50
t 157ms
Tue Feb 26 11:20:30 2019
s 1
v -1 -2 -3 -4 +5 -6 -7 +8 +9 +10 -11 -12 +13 +14 -15 +16 -17 +18 -19 -20 -21 +22 +23 +24 +25 +26 -27 +28 +29 -30 +31 -32 +33 -34 -35 -36 -37 +38 -39 -40 -41 +42 +43 -44 +45 +46 +47 +48 +49 +50
t 141ms
Tue Feb 26 11:24:49 2019
